NAME: rue_15_5
TYPE: TSP
DIMENSION: 15
EDGE_WEIGHT_TYPE: EUC_2D
NODE_COORD_SECTION
1 49 36
2 97 93
3 12 92
4 34 27
5 95 91
6 5 7
7 71 21
8 71 44
9 23 32
10 6 50
11 3 86
12 96 42
13 72 65
14 69 7
15 79 20
